presolving:
(round 1, fast)       123 del vars, 6873 del conss, 0 add conss, 123 chg bounds, 87 chg sides, 11320 chg coeffs, 0 upgd conss, 0 impls, 6909 clqs
(round 2, fast)       273 del vars, 13500 del conss, 0 add conss, 123 chg bounds, 87 chg sides, 11320 chg coeffs, 0 upgd conss, 0 impls, 282 clqs
   (0.1s) running MILP presolver
   (0.1s) MILP presolver found nothing
(round 3, exhaustive) 273 del vars, 13500 del conss, 0 add conss, 123 chg bounds, 87 chg sides, 11320 chg coeffs, 240 upgd conss, 0 impls, 282 clqs
   (0.3s) probing: 51/6627 (0.8%) - 0 fixings, 0 aggregations, 0 implications, 0 bound changes
   (0.3s) probing aborted: 50/50 successive totally useless probings
   (0.3s) symmetry computation started: requiring (bin +, int -, cont +), (fixed: bin -, int +, cont -)
   (0.4s) symmetry computation finished: 132 generators found (max: 1500, log10 of symmetry group size: 209.9)
(round 4, exhaustive) 273 del vars, 13500 del conss, 3 add conss, 123 chg bounds, 87 chg sides, 11321 chg coeffs, 240 upgd conss, 0 impls, 282 clqs
presolving (5 rounds: 5 fast, 3 medium, 3 exhaustive):
 273 deleted vars, 13500 deleted constraints, 3 added constraints, 123 tightened bounds, 0 added holes, 87 changed sides, 11321 changed coefficients
 0 implications, 282 cliques
presolved problem has 6627 variables (6627 bin, 0 int, 0 impl, 0 cont) and 243 constraints
     89 constraints of type <knapsack>
    150 constraints of type <setppc>
      3 constraints of type <orbitope>
      1 constraints of type <logicor>
transformed objective value is always integral (scale: 1)
Presolving Time: 0.43

 time | node  | left  |LP iter|LP it/n|mem/heur|mdpt |vars |cons |rows |cuts |sepa|confs|strbr|  dualbound   | primalbound  |  gap   | compl. 
p 0.5s|     1 |     0 |     0 |     - |  clique|   0 |6627 | 243 | 240 |   0 |  0 |   0 |   0 | 1.526528e+07 | 1.635036e+05 |9236.36%| unknown
  0.9s|     1 |     0 |  1779 |     - |   124M |   0 |6627 | 249 | 240 |   0 |  0 |   6 |   0 | 2.054075e+05 | 1.635036e+05 |  25.63%| unknown
  1.3s|     1 |     0 |  2462 |     - |   127M |   0 |6627 | 249 | 285 |  45 |  1 |   6 |   0 | 1.974758e+05 | 1.635036e+05 |  20.78%| unknown
  1.4s|     1 |     0 |  2620 |     - |   129M |   0 |6627 | 249 | 316 |  76 |  2 |   6 |   0 | 1.851354e+05 | 1.635036e+05 |  13.23%| unknown
  1.5s|     1 |     0 |  2698 |     - |   130M |   0 |6627 | 249 | 334 |  94 |  3 |   6 |   0 | 1.850945e+05 | 1.635036e+05 |  13.21%| unknown
  1.6s|     1 |     0 |  2821 |     - |   130M |   0 |6627 | 249 | 351 | 111 |  4 |   6 |   0 | 1.813996e+05 | 1.635036e+05 |  10.95%| unknown
  1.7s|     1 |     0 |  2884 |     - |   131M |   0 |6627 | 249 | 367 | 127 |  5 |   6 |   0 | 1.813949e+05 | 1.635036e+05 |  10.94%| unknown
  1.8s|     1 |     0 |  2952 |     - |   131M |   0 |6627 | 249 | 382 | 142 |  6 |   6 |   0 | 1.806721e+05 | 1.635036e+05 |  10.50%| unknown
  1.9s|     1 |     0 |  2999 |     - |   132M |   0 |6627 | 249 | 397 | 157 |  7 |   6 |   0 | 1.802129e+05 | 1.635036e+05 |  10.22%| unknown
  1.9s|     1 |     0 |  3035 |     - |   134M |   0 |6627 | 248 | 412 | 172 |  8 |   6 |   0 | 1.801231e+05 | 1.635036e+05 |  10.16%| unknown
  2.1s|     1 |     0 |  3357 |     - |   134M |   0 |6627 | 248 | 424 | 184 |  9 |   6 |   0 | 1.777171e+05 | 1.635036e+05 |   8.69%| unknown
  2.1s|     1 |     0 |  3482 |     - |   135M |   0 |6627 | 248 | 437 | 197 | 10 |   6 |   0 | 1.775787e+05 | 1.635036e+05 |   8.61%| unknown
  2.2s|     1 |     0 |  3555 |     - |   135M |   0 |6627 | 248 | 435 | 212 | 11 |   6 |   0 | 1.775579e+05 | 1.635036e+05 |   8.60%| unknown
  2.3s|     1 |     0 |  3598 |     - |   135M |   0 |6627 | 248 | 447 | 224 | 12 |   6 |   0 | 1.775498e+05 | 1.635036e+05 |   8.59%| unknown
  2.3s|     1 |     0 |  3644 |     - |   135M |   0 |6627 | 248 | 459 | 236 | 13 |   6 |   0 | 1.775332e+05 | 1.635036e+05 |   8.58%| unknown
 time | node  | left  |LP iter|LP it/n|mem/heur|mdpt |vars |cons |rows |cuts |sepa|confs|strbr|  dualbound   | primalbound  |  gap   | compl. 
  2.4s|     1 |     0 |  3912 |     - |   135M |   0 |6627 | 247 | 470 | 247 | 14 |   6 |   0 | 1.744138e+05 | 1.635036e+05 |   6.67%| unknown
  2.5s|     1 |     0 |  3938 |     - |   135M |   0 |6627 | 247 | 480 | 257 | 15 |   6 |   0 | 1.744138e+05 | 1.635036e+05 |   6.67%| unknown
  2.5s|     1 |     0 |  4037 |     - |   135M |   0 |6627 | 247 | 490 | 267 | 16 |   6 |   0 | 1.740387e+05 | 1.635036e+05 |   6.44%| unknown
  2.6s|     1 |     0 |  4074 |     - |   136M |   0 |6627 | 247 | 446 | 277 | 17 |   6 |   0 | 1.740172e+05 | 1.635036e+05 |   6.43%| unknown
  2.6s|     1 |     0 |  4116 |     - |   136M |   0 |6627 | 247 | 453 | 284 | 18 |   6 |   0 | 1.740167e+05 | 1.635036e+05 |   6.43%| unknown
  2.7s|     1 |     0 |  4159 |     - |   136M |   0 |6627 | 247 | 462 | 293 | 19 |   6 |   0 | 1.740162e+05 | 1.635036e+05 |   6.43%| unknown
  2.7s|     1 |     0 |  4174 |     - |   136M |   0 |6627 | 247 | 468 | 299 | 20 |   6 |   0 | 1.740109e+05 | 1.635036e+05 |   6.43%| unknown
  2.8s|     1 |     0 |  4236 |     - |   136M |   0 |6627 | 247 | 473 | 304 | 21 |   6 |   0 | 1.740014e+05 | 1.635036e+05 |   6.42%| unknown
  2.9s|     1 |     0 |  4287 |     - |   136M |   0 |6627 | 247 | 482 | 313 | 22 |   6 |   0 | 1.739956e+05 | 1.635036e+05 |   6.42%| unknown
  2.9s|     1 |     0 |  4319 |     - |   136M |   0 |6627 | 247 | 440 | 321 | 23 |   6 |   0 | 1.739890e+05 | 1.635036e+05 |   6.41%| unknown
  3.0s|     1 |     0 |  4331 |     - |   136M |   0 |6627 | 247 | 444 | 325 | 24 |   6 |   0 | 1.739883e+05 | 1.635036e+05 |   6.41%| unknown
  3.0s|     1 |     0 |  4370 |     - |   136M |   0 |6627 | 247 | 450 | 331 | 25 |   6 |   0 | 1.739874e+05 | 1.635036e+05 |   6.41%| unknown
  3.1s|     1 |     0 |  4398 |     - |   136M |   0 |6627 | 247 | 456 | 337 | 26 |   6 |   0 | 1.739805e+05 | 1.635036e+05 |   6.41%| unknown
  3.1s|     1 |     0 |  4409 |     - |   136M |   0 |6627 | 247 | 460 | 341 | 27 |   6 |   0 | 1.739805e+05 | 1.635036e+05 |   6.41%| unknown
d 3.3s|     1 |     0 |  5149 |     - |farkasdi|   0 |6627 | 247 | 460 |   0 | 27 |   6 |   0 | 1.739805e+05 | 1.648796e+05 |   5.52%| unknown
 time | node  | left  |LP iter|LP it/n|mem/heur|mdpt |vars |cons |rows |cuts |sepa|confs|strbr|  dualbound   | primalbound  |  gap   | compl. 
L 3.4s|     1 |     0 |  5511 |     - |    rens|   0 |6627 | 247 | 460 | 341 | 27 |   6 |   0 | 1.739805e+05 | 1.712986e+05 |   1.57%| unknown
  3.5s|     1 |     0 |  5511 |     - |   137M |   0 |6627 | 247 | 460 | 341 | 27 |   6 |   0 | 1.739805e+05 | 1.712986e+05 |   1.57%| unknown
  3.5s|     1 |     0 |  5511 |     - |   137M |   0 |6627 | 247 | 460 | 341 | 27 |   6 |   0 | 1.739805e+05 | 1.712986e+05 |   1.57%| unknown
  3.5s|     1 |     0 |  5566 |     - |   137M |   0 |6627 | 247 | 467 | 348 | 28 |   6 |   0 | 1.739753e+05 | 1.712986e+05 |   1.56%| unknown
  3.6s|     1 |     0 |  5567 |     - |   137M |   0 |6627 | 247 | 468 | 349 | 29 |   6 |   0 | 1.739753e+05 | 1.712986e+05 |   1.56%| unknown
  3.9s|     1 |     2 |  5589 |     - |   137M |   0 |6627 | 247 | 468 | 349 | 29 |   6 |  30 | 1.739704e+05 | 1.712986e+05 |   1.56%| unknown
  7.2s|   100 |    61 | 12403 |  80.2 |   151M |  19 |6627 | 259 | 417 | 374 |  1 |  18 |  30 | 1.739687e+05 | 1.712986e+05 |   1.56%|  10.30%
L 9.0s|   159 |    74 | 14704 |  64.8 |    alns|  20 |6627 | 262 | 423 | 401 |  2 |  21 |  30 | 1.739437e+05 | 1.716286e+05 |   1.35%|  12.55%
 10.6s|   200 |    93 | 16817 |  62.1 |   158M |  22 |6627 | 264 | 423 | 408 |  1 |  23 |  30 | 1.737727e+05 | 1.716286e+05 |   1.25%|  33.32%
d11.5s|   208 |    99 | 21427 |  81.9 |pscostdi|  22 |6627 | 264 | 433 |   0 |  3 |  23 |  30 | 1.737727e+05 | 1.718256e+05 |   1.13%|  35.42%
d12.4s|   243 |   114 | 23913 |  80.4 |guideddi|  22 |6627 | 289 | 429 |   0 |  2 |  50 |  30 | 1.735480e+05 | 1.718676e+05 |   0.98%|  49.93%
 15.1s|   300 |   134 | 28702 |  81.1 |   165M |  23 |6627 | 314 | 430 | 447 |  1 |  75 |  30 | 1.735361e+05 | 1.718676e+05 |   0.97%|  68.09%
*15.8s|   331 |   134 | 30020 |  77.4 |    LP  |  24 |6627 | 320 | 429 | 453 |  1 |  81 |  30 | 1.735361e+05 | 1.719636e+05 |   0.91%|  69.31%
r15.8s|   334 |   129 | 30076 |  76.9 |shifting|  24 |6627 | 320 | 429 | 453 |  0 |  81 |  30 | 1.735361e+05 | 1.720066e+05 |   0.89%|  69.63%
 17.3s|   400 |   180 | 32306 |  69.8 |   166M |  24 |6627 | 363 | 431 | 473 |  1 | 124 |  30 | 1.726551e+05 | 1.720066e+05 |   0.38%|  71.50%
 time | node  | left  |LP iter|LP it/n|mem/heur|mdpt |vars |cons |rows |cuts |sepa|confs|strbr|  dualbound   | primalbound  |  gap   | compl. 
r17.8s|   431 |    34 | 33307 |  67.1 |ziroundi|  24 |6627 | 369 | 429 | 480 |  3 | 145 |  30 | 1.726477e+05 | 1.723236e+05 |   0.19%|  73.35%
r17.9s|   440 |    31 | 33362 |  65.8 |ziroundi|  24 |6627 | 370 | 426 | 480 |  2 | 146 |  30 | 1.726477e+05 | 1.723266e+05 |   0.19%|  74.22%
 18.9s|   500 |    39 | 34074 |  59.3 |   169M |  25 |6627 | 375 |   0 | 488 |  0 | 151 |  30 | 1.726184e+05 | 1.723266e+05 |   0.17%|  75.66%
 20.1s|   600 |    84 | 35276 |  51.4 |   171M |  43 |6627 | 420 |   0 | 514 |  0 | 196 |  30 | 1.726035e+05 | 1.723266e+05 |   0.16%|  75.90%
 22.2s|   700 |   110 | 36196 |  45.4 |   172M |  43 |6627 | 453 | 432 | 531 |  1 | 230 |  30 | 1.725816e+05 | 1.723266e+05 |   0.15%|  76.22%
L23.5s|   739 |    40 | 36905 |  44.0 |    rins|  43 |6627 | 455 | 430 | 533 |  1 | 233 |  30 | 1.725739e+05 | 1.724366e+05 |   0.08%|  81.59%
 25.5s|   800 |    67 | 37746 |  41.7 |   174M |  43 |6627 | 461 |   0 | 533 |  0 | 239 |  30 | 1.725739e+05 | 1.724366e+05 |   0.08%|  81.73%
*25.9s|   814 |    62 | 37944 |  41.2 |    LP  |  43 |6627 | 462 | 430 | 534 |  1 | 240 |  30 | 1.725739e+05 | 1.724476e+05 |   0.07%|  82.81%
d26.9s|   897 |    72 | 38360 |  37.8 |guideddi|  43 |6627 | 476 | 432 |   0 |  1 | 259 |  30 | 1.725731e+05 | 1.724556e+05 |   0.07%|  84.29%
 27.0s|   900 |    73 | 38383 |  37.7 |   174M |  43 |6627 | 476 | 431 | 539 |  0 | 259 |  30 | 1.725731e+05 | 1.724556e+05 |   0.07%|  84.33%
 28.2s|  1000 |    89 | 38851 |  34.4 |   174M |  43 |6627 | 492 | 431 | 540 |  2 | 276 |  30 | 1.725722e+05 | 1.724556e+05 |   0.07%|  85.25%
*28.4s|  1026 |    64 | 38904 |  33.6 |    LP  |  43 |6627 | 498 | 432 | 540 |  2 | 282 |  30 | 1.725707e+05 | 1.724856e+05 |   0.05%|  86.28%
 29.4s|  1100 |    80 | 39151 |  31.6 |   174M |  43 |6627 | 500 | 431 | 543 |  0 | 287 |  30 | 1.725687e+05 | 1.724856e+05 |   0.05%|  86.62%
 30.1s|  1200 |    80 | 39438 |  29.2 |   174M |  43 |6627 | 493 | 431 | 543 |  0 | 288 |  30 | 1.725643e+05 | 1.724856e+05 |   0.05%|  87.41%
L30.5s|  1226 |    26 | 39547 |  28.6 |crossove|  43 |6627 | 495 |   0 | 543 |  0 | 291 |  30 | 1.725636e+05 | 1.725296e+05 |   0.02%|  88.07%
 time | node  | left  |LP iter|LP it/n|mem/heur|mdpt |vars |cons |rows |cuts |sepa|confs|strbr|  dualbound   | primalbound  |  gap   | compl. 
 31.4s|  1300 |    22 | 39885 |  27.3 |   174M |  43 |6627 | 492 | 431 | 544 |  1 | 301 |  30 | 1.725628e+05 | 1.725296e+05 |   0.02%|  91.54%
 31.9s|  1400 |    16 | 40490 |  25.8 |   174M |  43 |6627 | 483 | 432 | 547 |  1 | 303 |  30 | 1.725608e+05 | 1.725296e+05 |   0.02%|  93.74%
 32.6s|  1500 |     6 | 41215 |  24.5 |   175M |  43 |6627 | 491 | 433 | 559 |  1 | 315 |  30 | 1.725588e+05 | 1.725296e+05 |   0.02%|  98.00%

SCIP Status        : problem is solved [optimal solution found]
Solving Time (sec) : 32.79
Solving Nodes      : 1558
Primal Bound       : +1.72529567274544e+05 (354 solutions)
Dual Bound         : +1.72529567274544e+05
Gap                : 0.00 %
Solve Status: optimal
Solve Time: 32.79 seconds
